p cnf 144 1
144 0
w 1 0.259091
w 2 1 0
w 2 -1 1
w 3 2 0
w 3 -2 1
w 4 3 0.687501
w 4 -3 0.242872
w 5 4 0.0200082
w 5 -4 0.734138
w 6 5 0.385912
w 6 -5 0.354874
w 7 6 0.630783
w 7 -6 0.189116
w 8 7 1
w 8 -7 0
w 9 8 1
w 9 -8 0
w 10 9 0.721374
w 10 -9 0.520742
w 11 10 1
w 11 -10 0
w 12 11 1
w 12 -11 0
w 13 1 0.580702
w 13 -1 0.845948
w 14 13 2 0
w 14 13 -2 0
w 14 -13 2 0
w 14 -13 -2 1
w 15 14 3 0.234877
w 15 14 -3 0.36576
w 15 -14 3 0.273123
w 15 -14 -3 0.254885
w 16 15 4 0
w 16 15 -4 0
w 16 -15 4 0
w 16 -15 -4 1
w 17 16 5 1
w 17 16 -5 0
w 17 -16 5 0
w 17 -16 -5 0
w 18 17 6 1
w 18 17 -6 1
w 18 -17 6 0
w 18 -17 -6 1
w 19 18 7 0.13322
w 19 18 -7 0.477718
w 19 -18 7 0.665965
w 19 -18 -7 0.713923
w 20 19 8 0
w 20 19 -8 1
w 20 -19 8 0
w 20 -19 -8 0
w 21 20 9 1
w 21 20 -9 0
w 21 -20 9 1
w 21 -20 -9 1
w 22 21 10 0.653155
w 22 21 -10 0.460104
w 22 -21 10 0.377905
w 22 -21 -10 0.815407
w 23 22 11 0.0217927
w 23 22 -11 0.424273
w 23 -22 11 0.367414
w 23 -22 -11 0.686112
w 24 23 12 0.575857
w 24 23 -12 0.0718057
w 24 -23 12 0.489825
w 24 -23 -12 0.169813
w 25 13 0.623045
w 25 -13 0.647531
w 26 25 14 0.336968
w 26 25 -14 0.971197
w 26 -25 14 0.328793
w 26 -25 -14 0.671555
w 27 26 15 0
w 27 26 -15 0
w 27 -26 15 1
w 27 -26 -15 1
w 28 27 16 0.876791
w 28 27 -16 0.0420647
w 28 -27 16 0.875399
w 28 -27 -16 0.529946
w 29 28 17 0.253304
w 29 28 -17 0.345353
w 29 -28 17 0.233852
w 29 -28 -17 0.275096
w 30 29 18 0.601266
w 30 29 -18 0.961209
w 30 -29 18 0.466305
w 30 -29 -18 0.177123
w 31 30 19 1
w 31 30 -19 1
w 31 -30 19 0
w 31 -30 -19 1
w 32 31 20 0.460298
w 32 31 -20 0.916143
w 32 -31 20 0.965664
w 32 -31 -20 0.789091
w 33 32 21 0.347156
w 33 32 -21 0.447428
w 33 -32 21 0.716727
w 33 -32 -21 0.839736
w 34 33 22 0.668993
w 34 33 -22 0.716527
w 34 -33 22 0.712252
w 34 -33 -22 0.544391
w 35 34 23 1
w 35 34 -23 0
w 35 -34 23 0
w 35 -34 -23 0
w 36 35 24 1
w 36 35 -24 1
w 36 -35 24 1
w 36 -35 -24 0
w 37 25 0.573596
w 37 -25 0.980688
w 38 37 26 1
w 38 37 -26 0
w 38 -37 26 0
w 38 -37 -26 1
w 39 38 27 1
w 39 38 -27 1
w 39 -38 27 1
w 39 -38 -27 0
w 40 39 28 0.347692
w 40 39 -28 0.252622
w 40 -39 28 0.437145
w 40 -39 -28 0.0599432
w 41 40 29 0.683618
w 41 40 -29 0.274363
w 41 -40 29 0.594708
w 41 -40 -29 0.275445
w 42 41 30 0.6675
w 42 41 -30 0.636898
w 42 -41 30 0.772172
w 42 -41 -30 0.7015
w 43 42 31 0
w 43 42 -31 0
w 43 -42 31 0
w 43 -42 -31 1
w 44 43 32 0.140491
w 44 43 -32 0.190187
w 44 -43 32 0.890808
w 44 -43 -32 0.674218
w 45 44 33 1
w 45 44 -33 0
w 45 -44 33 1
w 45 -44 -33 0
w 46 45 34 0
w 46 45 -34 0
w 46 -45 34 1
w 46 -45 -34 0
w 47 46 35 1
w 47 46 -35 0
w 47 -46 35 0
w 47 -46 -35 0
w 48 47 36 0.653182
w 48 47 -36 0.308824
w 48 -47 36 0.274572
w 48 -47 -36 0.354681
w 49 37 0.273404
w 49 -37 0.123195
w 50 49 38 1
w 50 49 -38 0
w 50 -49 38 0
w 50 -49 -38 0
w 51 50 39 0
w 51 50 -39 1
w 51 -50 39 0
w 51 -50 -39 0
w 52 51 40 1
w 52 51 -40 0
w 52 -51 40 1
w 52 -51 -40 1
w 53 52 41 0
w 53 52 -41 1
w 53 -52 41 1
w 53 -52 -41 0
w 54 53 42 1
w 54 53 -42 0
w 54 -53 42 1
w 54 -53 -42 0
w 55 54 43 0.0882146
w 55 54 -43 0.60196
w 55 -54 43 0.354935
w 55 -54 -43 0.361619
w 56 55 44 0.376956
w 56 55 -44 0.20745
w 56 -55 44 0.597552
w 56 -55 -44 0.0105811
w 57 56 45 0
w 57 56 -45 0
w 57 -56 45 1
w 57 -56 -45 0
w 58 57 46 0.0699554
w 58 57 -46 0.723596
w 58 -57 46 0.440636
w 58 -57 -46 0.561315
w 59 58 47 0.658077
w 59 58 -47 0.765539
w 59 -58 47 0.281147
w 59 -58 -47 0.266491
w 60 59 48 0
w 60 59 -48 1
w 60 -59 48 1
w 60 -59 -48 0
w 61 49 1
w 61 -49 0
w 62 61 50 1
w 62 61 -50 1
w 62 -61 50 1
w 62 -61 -50 0
w 63 62 51 1
w 63 62 -51 1
w 63 -62 51 0
w 63 -62 -51 0
w 64 63 52 1
w 64 63 -52 0
w 64 -63 52 0
w 64 -63 -52 0
w 65 64 53 0.75561
w 65 64 -53 0.742673
w 65 -64 53 0.308918
w 65 -64 -53 0.413686
w 66 65 54 0.590064
w 66 65 -54 0.680178
w 66 -65 54 0.874456
w 66 -65 -54 0.182453
w 67 66 55 0.513331
w 67 66 -55 0.588485
w 67 -66 55 0.648633
w 67 -66 -55 0.733663
w 68 67 56 0
w 68 67 -56 0
w 68 -67 56 1
w 68 -67 -56 1
w 69 68 57 0
w 69 68 -57 1
w 69 -68 57 1
w 69 -68 -57 0
w 70 69 58 0.721778
w 70 69 -58 0.370402
w 70 -69 58 0.3543
w 70 -69 -58 0.0367522
w 71 70 59 0.913548
w 71 70 -59 0.792362
w 71 -70 59 0.294433
w 71 -70 -59 0.222465
w 72 71 60 1
w 72 71 -60 0
w 72 -71 60 1
w 72 -71 -60 1
w 73 61 0.426992
w 73 -61 0.190431
w 74 73 62 0.0756248
w 74 73 -62 0.924095
w 74 -73 62 0.666198
w 74 -73 -62 0.434085
w 75 74 63 0
w 75 74 -63 0
w 75 -74 63 1
w 75 -74 -63 0
w 76 75 64 0
w 76 75 -64 1
w 76 -75 64 0
w 76 -75 -64 0
w 77 76 65 0.476671
w 77 76 -65 0.787864
w 77 -76 65 0.840003
w 77 -76 -65 0.269033
w 78 77 66 1
w 78 77 -66 0
w 78 -77 66 1
w 78 -77 -66 1
w 79 78 67 0
w 79 78 -67 1
w 79 -78 67 1
w 79 -78 -67 0
w 80 79 68 1
w 80 79 -68 0
w 80 -79 68 1
w 80 -79 -68 0
w 81 80 69 0.72444
w 81 80 -69 0.525537
w 81 -80 69 0.403775
w 81 -80 -69 0.331144
w 82 81 70 0.121915
w 82 81 -70 0.196847
w 82 -81 70 0.151198
w 82 -81 -70 0.561834
w 83 82 71 0
w 83 82 -71 1
w 83 -82 71 1
w 83 -82 -71 1
w 84 83 72 1
w 84 83 -72 0
w 84 -83 72 0
w 84 -83 -72 0
w 85 73 0.143925
w 85 -73 0.750096
w 86 85 74 0.932223
w 86 85 -74 0.502569
w 86 -85 74 0.178551
w 86 -85 -74 0.796146
w 87 86 75 1
w 87 86 -75 0
w 87 -86 75 0
w 87 -86 -75 1
w 88 87 76 0.492506
w 88 87 -76 0.353781
w 88 -87 76 0.198734
w 88 -87 -76 0.614421
w 89 88 77 0.349933
w 89 88 -77 0.176255
w 89 -88 77 0.98358
w 89 -88 -77 0.427586
w 90 89 78 0
w 90 89 -78 0
w 90 -89 78 0
w 90 -89 -78 1
w 91 90 79 0
w 91 90 -79 1
w 91 -90 79 0
w 91 -90 -79 1
w 92 91 80 1
w 92 91 -80 1
w 92 -91 80 0
w 92 -91 -80 0
w 93 92 81 0
w 93 92 -81 1
w 93 -92 81 1
w 93 -92 -81 1
w 94 93 82 0.708602
w 94 93 -82 0.758756
w 94 -93 82 0.0897894
w 94 -93 -82 0.323023
w 95 94 83 0
w 95 94 -83 1
w 95 -94 83 1
w 95 -94 -83 1
w 96 95 84 0.49736
w 96 95 -84 0.21255
w 96 -95 84 0.236335
w 96 -95 -84 0.00486858
w 97 85 0.541252
w 97 -85 0.700432
w 98 97 86 0.990093
w 98 97 -86 0.146091
w 98 -97 86 0.623996
w 98 -97 -86 0.371157
w 99 98 87 1
w 99 98 -87 1
w 99 -98 87 0
w 99 -98 -87 0
w 100 99 88 0.437782
w 100 99 -88 0.495452
w 100 -99 88 0.710787
w 100 -99 -88 0.146384
w 101 100 89 1
w 101 100 -89 0
w 101 -100 89 1
w 101 -100 -89 1
w 102 101 90 0.856557
w 102 101 -90 0.107606
w 102 -101 90 0.682722
w 102 -101 -90 0.353917
w 103 102 91 1
w 103 102 -91 1
w 103 -102 91 1
w 103 -102 -91 0
w 104 103 92 0
w 104 103 -92 1
w 104 -103 92 1
w 104 -103 -92 1
w 105 104 93 0.299628
w 105 104 -93 0.908612
w 105 -104 93 0.369926
w 105 -104 -93 0.521313
w 106 105 94 0.189657
w 106 105 -94 0.959095
w 106 -105 94 0.494541
w 106 -105 -94 0.900444
w 107 106 95 0
w 107 106 -95 1
w 107 -106 95 0
w 107 -106 -95 0
w 108 107 96 0.54357
w 108 107 -96 0.168899
w 108 -107 96 0.0489235
w 108 -107 -96 0.226292
w 109 97 0.36908
w 109 -97 0.14535
w 110 109 98 0.227152
w 110 109 -98 0.605659
w 110 -109 98 0.940819
w 110 -109 -98 0.80363
w 111 110 99 0
w 111 110 -99 1
w 111 -110 99 1
w 111 -110 -99 1
w 112 111 100 0.247545
w 112 111 -100 0.967069
w 112 -111 100 0.911804
w 112 -111 -100 0.437202
w 113 112 101 0.406344
w 113 112 -101 0.337645
w 113 -112 101 0.0316424
w 113 -112 -101 0.155093
w 114 113 102 0
w 114 113 -102 1
w 114 -113 102 1
w 114 -113 -102 0
w 115 114 103 0.028906
w 115 114 -103 0.37639
w 115 -114 103 0.159151
w 115 -114 -103 0.397986
w 116 115 104 0.0407528
w 116 115 -104 0.625138
w 116 -115 104 0.127399
w 116 -115 -104 0.981572
w 117 116 105 1
w 117 116 -105 0
w 117 -116 105 1
w 117 -116 -105 1
w 118 117 106 0.345587
w 118 117 -106 0.308623
w 118 -117 106 0.540524
w 118 -117 -106 0.25739
w 119 118 107 0.466688
w 119 118 -107 0.663734
w 119 -118 107 0.0834701
w 119 -118 -107 0.49833
w 120 119 108 0.122135
w 120 119 -108 0.104858
w 120 -119 108 0.286263
w 120 -119 -108 0.102118
w 121 109 0
w 121 -109 1
w 122 121 110 1
w 122 121 -110 0
w 122 -121 110 0
w 122 -121 -110 0
w 123 122 111 1
w 123 122 -111 0
w 123 -122 111 0
w 123 -122 -111 0
w 124 123 112 1
w 124 123 -112 1
w 124 -123 112 0
w 124 -123 -112 1
w 125 124 113 0
w 125 124 -113 1
w 125 -124 113 1
w 125 -124 -113 1
w 126 125 114 0.310771
w 126 125 -114 0.101325
w 126 -125 114 0.785076
w 126 -125 -114 0.41563
w 127 126 115 1
w 127 126 -115 0
w 127 -126 115 0
w 127 -126 -115 0
w 128 127 116 0
w 128 127 -116 0
w 128 -127 116 1
w 128 -127 -116 1
w 129 128 117 0.735506
w 129 128 -117 0.618512
w 129 -128 117 0.284289
w 129 -128 -117 0.199451
w 130 129 118 0.300074
w 130 129 -118 0.724475
w 130 -129 118 0.655515
w 130 -129 -118 0.661447
w 131 130 119 0.0012681
w 131 130 -119 0.280209
w 131 -130 119 0.137593
w 131 -130 -119 0.813709
w 132 131 120 0.800534
w 132 131 -120 0.124481
w 132 -131 120 0.664032
w 132 -131 -120 0.585611
w 133 121 0.05162
w 133 -121 0.472805
w 134 133 122 0
w 134 133 -122 1
w 134 -133 122 0
w 134 -133 -122 0
w 135 134 123 1
w 135 134 -123 1
w 135 -134 123 0
w 135 -134 -123 1
w 136 135 124 0.0239119
w 136 135 -124 0.902606
w 136 -135 124 0.736979
w 136 -135 -124 0.323986
w 137 136 125 0.392494
w 137 136 -125 0.985433
w 137 -136 125 0.185203
w 137 -136 -125 0.393762
w 138 137 126 1
w 138 137 -126 0
w 138 -137 126 0
w 138 -137 -126 0
w 139 138 127 1
w 139 138 -127 0
w 139 -138 127 0
w 139 -138 -127 0
w 140 139 128 1
w 140 139 -128 0
w 140 -139 128 0
w 140 -139 -128 1
w 141 140 129 0.711016
w 141 140 -129 0.563036
w 141 -140 129 0.927731
w 141 -140 -129 0.45064
w 142 141 130 1
w 142 141 -130 0
w 142 -141 130 1
w 142 -141 -130 0
w 143 142 131 0.795879
w 143 142 -131 0.943897
w 143 -142 131 0.783971
w 143 -142 -131 0.981082
w 144 143 132 1
w 144 143 -132 0
w 144 -143 132 1
w 144 -143 -132 1